NAME : portcgen-15-15
COMMENT : portcgen N=15, seed=15
TYPE : TSP
DIMENSION : 15
EDGE_WEIGHT_TYPE : EUC_2D
NODE_COORD_SECTION
1 133857 122477
2 -438875 -299394
3 204235 78891
4 224720 382609
5 59141 -403634
6 425689 -395290
7 313520 -10247
8 -289537 199933
9 435384 120739
10 -59620 -323109
11 115140 177380
12 -222010 211721
13 419820 -315745
14 -217503 -300752
15 381366 22036
